Route #1: 48 36 11 5 41 22
Route #2: 40 44 37 6 33
Route #3: 29 27 31 34 38 13 24
Route #4: 30 46 4 19
Route #5: 14 42 15 32 1
Route #6: 17 45 12 47 21 39
Route #7: 25 10 26
Route #8: 9 43 49 7 50 35 28 18 23
Route #9: 20 8 3 16 2
Cost 7408510.000000